p cnf 7 21 
c Factors encoded in variables 1-5 and 6-7
c Target number: 38
c Factors: 19 x 2
-3 6 0
-4 3 2 -6 0
5 4 0
2 6 0
-3 -2 -1 0
3 2 1 0
-4 1 6 0
-5 -4 -3 1 0
-5 2 1 0
-3 1 6 0
-3 1 0
-1 -6 0
1 6 0
-5 -3 -2 -6 0
-5 -4 -6 0
7 0
2 3 4 5 0
-5 4 -6 0
-4 6 0
-4 -3 -2 6 0
-4 1 0
